(set-info :source |printed by MathSAT|)
(declare-fun call_moesi.ite30.next () Int)
(declare-fun call_moesi.ite33 () Int)
(declare-fun call_moesi.ite16 () Int)
(declare-fun exclusive_mo.next () Int)
(declare-fun shared_mo.next () Int)
(declare-fun call_moesi.ite29.next () Int)
(declare-fun call_moesi.ite26 () Int)
(declare-fun call_moesi.ite34.next () Int)
(declare-fun call_moesi.garde_mo1.next () Bool)
(declare-fun call_moesi.flby2 () Int)
(declare-fun call_moesi.ite3 () Int)
(declare-fun modified_mo () Int)
(declare-fun call_moesi.erreur_mo () Bool)
(declare-fun call_moesi.flby3 () Int)
(declare-fun call_moesi.ite15 () Int)
(declare-fun call_moesi.flby4.next () Int)
(declare-fun call_moesi.ite6 () Int)
(declare-fun call_moesi.ite.next () Int)
(declare-fun call_moesi.ite9.next () Int)
(declare-fun call_moesi.invalid_mo () Int)
(declare-fun call_moesi.ite14.next () Int)
(declare-fun call_moesi.ite26.next () Int)
(declare-fun param_etat_mo2.next () Bool)
(declare-fun param_etat_mo4 () Bool)
(declare-fun call_Sofar.flby () Bool)
(declare-fun call_Sofar.Sofar.next () Bool)
(declare-fun call_moesi.shared_mo () Int)
(declare-fun param_etat_mo3.next () Bool)
(declare-fun call_excludes4.excludes () Bool)
(declare-fun param_etat_mo1.next () Bool)
(declare-fun call_moesi.garde_mo4.next () Bool)
(declare-fun call_moesi.ite18 () Int)
(declare-fun call_moesi.ite2.next () Int)
(declare-fun call_moesi.ite9 () Int)
(declare-fun call_moesi.ite16.next () Int)
(declare-fun call_moesi.ite2 () Int)
(declare-fun call_moesi.flby.next () Bool)
(declare-fun call_moesi.ite33.next () Int)
(declare-fun call_moesi.shared_mo.next () Int)
(declare-fun call_moesi.ite10.next () Int)
(declare-fun _OK_.next () Bool)
(declare-fun call_moesi.ite27 () Int)
(declare-fun modified_mo.next () Int)
(declare-fun exclusive_mo () Int)
(declare-fun call_moesi.ite28.next () Int)
(declare-fun call_moesi.garde_mo2.next () Bool)
(declare-fun owned_mo () Int)
(declare-fun call_moesi.ite32.next () Int)
(declare-fun call_excludes4.excludes.next () Bool)
(declare-fun call_moesi.ite13.next () Int)
(declare-fun call_moesi.ite11 () Int)
(declare-fun call_moesi.ite15.next () Int)
(declare-fun call_moesi.ite3.next () Int)
(declare-fun call_moesi.ite17.next () Int)
(declare-fun call_moesi.ite25.next () Int)
(declare-fun call_moesi.ite21.next () Int)
(declare-fun call_moesi.ite20.next () Int)
(declare-fun _OK_ () Bool)
(declare-fun call_moesi.ite23.next () Int)
(declare-fun call_moesi.ite () Int)
(declare-fun call_moesi.ite29 () Int)
(declare-fun call_moesi.ite19.next () Int)
(declare-fun call_moesi.ite34 () Int)
(declare-fun call_moesi.ite5 () Int)
(declare-fun call_moesi.exclusive_mo () Int)
(declare-fun call_moesi.ite14 () Int)
(declare-fun call_moesi.ite17 () Int)
(declare-fun call_moesi.ite32 () Int)
(declare-fun call_moesi.ite10 () Int)
(declare-fun call_moesi.ite8.next () Int)
(declare-fun call_moesi.ite23 () Int)
(declare-fun call_moesi.flby () Bool)
(declare-fun owned_mo.next () Int)
(declare-fun call_moesi.flby6 () Int)
(declare-fun call_moesi.ite13 () Int)
(declare-fun call_moesi.ite22 () Int)
(declare-fun call_Sofar.Sofar () Bool)
(declare-fun call_moesi.flby2.next () Int)
(declare-fun invalid_mo () Int)
(declare-fun param_etat_mo1 () Bool)
(declare-fun call_moesi.modified_mo.next () Int)
(declare-fun erreur_mo.next () Bool)
(declare-fun call_moesi.ite6.next () Int)
(declare-fun call_moesi.flby6.next () Int)
(declare-fun shared_mo () Int)
(declare-fun call_moesi.ite4.next () Int)
(declare-fun call_moesi.ite27.next () Int)
(declare-fun call_moesi.exclusive_mo.next () Int)
(declare-fun call_moesi.garde_mo3.next () Bool)
(declare-fun call_moesi.ite28 () Int)
(declare-fun call_moesi.owned_mo.next () Int)
(declare-fun call_moesi.ite18.next () Int)
(declare-fun call_moesi.ite31.next () Int)
(declare-fun call_moesi.modified_mo () Int)
(declare-fun call_moesi.ite7.next () Int)
(declare-fun call_moesi.ite21 () Int)
(declare-fun call_moesi.ite24.next () Int)
(declare-fun call_moesi.ite20 () Int)
(declare-fun erreur_mo () Bool)
(declare-fun call_moesi.ite24 () Int)
(declare-fun call_Sofar.flby.next () Bool)
(declare-fun call_moesi.ite30 () Int)
(declare-fun param_etat_mo3 () Bool)
(declare-fun invalid_mo.next () Int)
(declare-fun param_etat_mo4.next () Bool)
(declare-fun call_moesi.flby3.next () Int)
(declare-fun param_init_invalid_mo.next () Int)
(declare-fun call_moesi.ite8 () Int)
(declare-fun call_moesi.flby5 () Int)
(declare-fun call_moesi.ite12.next () Int)
(declare-fun call_moesi.flby5.next () Int)
(declare-fun call_moesi.ite7 () Int)
(declare-fun call_moesi.erreur_mo.next () Bool)
(declare-fun call_moesi.flby4 () Int)
(declare-fun call_moesi.owned_mo () Int)
(declare-fun call_moesi.ite11.next () Int)
(declare-fun call_moesi.invalid_mo.next () Int)
(declare-fun call_moesi.ite5.next () Int)
(declare-fun call_moesi.ite22.next () Int)
(declare-fun param_etat_mo2 () Bool)
(define-fun .def_1295 () Bool (= call_Sofar.flby.next call_Sofar.Sofar.next))
(define-fun .def_1290 () Bool (and param_etat_mo4.next param_etat_mo3.next))
(define-fun .def_1288 () Bool (and param_etat_mo4.next param_etat_mo2.next))
(define-fun .def_1286 () Bool (and param_etat_mo2.next param_etat_mo3.next))
(define-fun .def_1284 () Bool (and param_etat_mo4.next param_etat_mo1.next))
(define-fun .def_1282 () Bool (and param_etat_mo1.next param_etat_mo3.next))
(define-fun .def_1281 () Bool (and param_etat_mo2.next param_etat_mo1.next))
(define-fun .def_1283 () Bool (or .def_1281 .def_1282))
(define-fun .def_1285 () Bool (or .def_1283 .def_1284))
(define-fun .def_1287 () Bool (or .def_1285 .def_1286))
(define-fun .def_1289 () Bool (or .def_1287 .def_1288))
(define-fun .def_1291 () Bool (or .def_1289 .def_1290))
(define-fun .def_1292 () Bool (not .def_1291))
(define-fun .def_1293 () Bool (= call_excludes4.excludes.next .def_1292))
(define-fun .def_1279 () Bool (= call_moesi.flby.next call_moesi.erreur_mo.next))
(define-fun .def_1277 () Bool (= call_moesi.flby6.next call_moesi.owned_mo.next))
(define-fun .def_1275 () Bool (= call_moesi.flby5.next call_moesi.invalid_mo.next))
(define-fun .def_1273 () Bool (= call_moesi.flby4.next call_moesi.shared_mo.next))
(define-fun .def_1271 () Bool (= call_moesi.exclusive_mo.next call_moesi.flby3.next))
(define-fun .def_1269 () Bool (= call_moesi.flby2.next call_moesi.modified_mo.next))
(define-fun .def_1267 () Bool (= erreur_mo.next call_moesi.erreur_mo.next))
(define-fun .def_1264 () Bool (= owned_mo.next call_moesi.owned_mo.next))
(define-fun .def_1260 () Bool (= invalid_mo.next call_moesi.invalid_mo.next))
(define-fun .def_1256 () Bool (= shared_mo.next call_moesi.shared_mo.next))
(define-fun .def_1252 () Bool (= call_moesi.exclusive_mo.next exclusive_mo.next))
(define-fun .def_1249 () Bool (= modified_mo.next call_moesi.modified_mo.next))
(define-fun .def_1243 () Bool (not erreur_mo.next))
(define-fun .def_1241 () Bool (not call_Sofar.Sofar.next))
(define-fun .def_1244 () Bool (or .def_1241 .def_1243))
(define-fun .def_1245 () Bool (= _OK_.next .def_1244))
(define-fun .def_1235 () Bool (= call_moesi.ite32.next call_moesi.ite33.next))
(define-fun .def_1236 () Bool (or param_etat_mo3.next .def_1235))
(define-fun .def_1232 () Bool (= call_moesi.ite30.next call_moesi.ite33.next))
(define-fun .def_1211 () Bool (not param_etat_mo3.next))
(define-fun .def_1233 () Bool (or .def_1211 .def_1232))
(define-fun .def_1229 () Bool (= call_moesi.ite26.next call_moesi.ite27.next))
(define-fun .def_1230 () Bool (or param_etat_mo3.next .def_1229))
(define-fun .def_1226 () Bool (= call_moesi.ite24.next call_moesi.ite27.next))
(define-fun .def_1227 () Bool (or .def_1211 .def_1226))
(define-fun .def_1223 () Bool (= call_moesi.ite20.next call_moesi.ite21.next))
(define-fun .def_1224 () Bool (or param_etat_mo3.next .def_1223))
(define-fun .def_1220 () Bool (= call_moesi.ite18.next call_moesi.ite21.next))
(define-fun .def_1221 () Bool (or .def_1211 .def_1220))
(define-fun .def_1217 () Bool (= call_moesi.ite13.next call_moesi.ite14.next))
(define-fun .def_1218 () Bool (or param_etat_mo3.next .def_1217))
(define-fun .def_1214 () Bool (= call_moesi.ite11.next call_moesi.ite14.next))
(define-fun .def_1215 () Bool (or .def_1211 .def_1214))
(define-fun .def_1210 () Bool (= call_moesi.ite3.next call_moesi.ite6.next))
(define-fun .def_1212 () Bool (or .def_1210 .def_1211))
(define-fun .def_1207 () Bool (= call_moesi.ite5.next call_moesi.ite6.next))
(define-fun .def_1209 () Bool (or .def_1207 param_etat_mo3.next))
(define-fun .def_1213 () Bool (and .def_1209 .def_1212))
(define-fun .def_1216 () Bool (and .def_1213 .def_1215))
(define-fun .def_1219 () Bool (and .def_1216 .def_1218))
(define-fun .def_1222 () Bool (and .def_1219 .def_1221))
(define-fun .def_1225 () Bool (and .def_1222 .def_1224))
(define-fun .def_1228 () Bool (and .def_1225 .def_1227))
(define-fun .def_1231 () Bool (and .def_1228 .def_1230))
(define-fun .def_1234 () Bool (and .def_1231 .def_1233))
(define-fun .def_1237 () Bool (and .def_1234 .def_1236))
(define-fun .def_1203 () Bool (= call_moesi.ite34.next call_moesi.ite33.next))
(define-fun .def_1204 () Bool (or param_etat_mo1.next .def_1203))
(define-fun .def_1199 () Bool (= call_moesi.ite29.next call_moesi.ite34.next))
(define-fun .def_1176 () Bool (not param_etat_mo1.next))
(define-fun .def_1200 () Bool (or .def_1176 .def_1199))
(define-fun .def_1196 () Bool (= call_moesi.ite28.next call_moesi.ite27.next))
(define-fun .def_1197 () Bool (or param_etat_mo1.next .def_1196))
(define-fun .def_1192 () Bool (= call_moesi.ite23.next call_moesi.ite28.next))
(define-fun .def_1193 () Bool (or .def_1176 .def_1192))
(define-fun .def_1189 () Bool (= call_moesi.ite22.next call_moesi.ite21.next))
(define-fun .def_1190 () Bool (or param_etat_mo1.next .def_1189))
(define-fun .def_1185 () Bool (= call_moesi.ite17.next call_moesi.ite22.next))
(define-fun .def_1186 () Bool (or .def_1176 .def_1185))
(define-fun .def_1182 () Bool (= call_moesi.ite16.next call_moesi.ite15.next))
(define-fun .def_1183 () Bool (or param_etat_mo1.next .def_1182))
(define-fun .def_1179 () Bool (= call_moesi.ite9.next call_moesi.ite16.next))
(define-fun .def_1180 () Bool (or .def_1176 .def_1179))
(define-fun .def_1175 () Bool (= call_moesi.ite.next call_moesi.ite8.next))
(define-fun .def_1177 () Bool (or .def_1175 .def_1176))
(define-fun .def_1172 () Bool (= call_moesi.ite8.next call_moesi.ite7.next))
(define-fun .def_1174 () Bool (or .def_1172 param_etat_mo1.next))
(define-fun .def_1178 () Bool (and .def_1174 .def_1177))
(define-fun .def_1181 () Bool (and .def_1178 .def_1180))
(define-fun .def_1184 () Bool (and .def_1181 .def_1183))
(define-fun .def_1187 () Bool (and .def_1184 .def_1186))
(define-fun .def_1191 () Bool (and .def_1187 .def_1190))
(define-fun .def_1194 () Bool (and .def_1191 .def_1193))
(define-fun .def_1198 () Bool (and .def_1194 .def_1197))
(define-fun .def_1201 () Bool (and .def_1198 .def_1200))
(define-fun .def_1205 () Bool (and .def_1201 .def_1204))
(define-fun .def_1169 () Bool (= call_moesi.ite15.next call_moesi.ite14.next))
(define-fun .def_1170 () Bool (or param_etat_mo2.next .def_1169))
(define-fun .def_1165 () Bool (= call_moesi.ite10.next call_moesi.ite15.next))
(define-fun .def_1161 () Bool (not param_etat_mo2.next))
(define-fun .def_1166 () Bool (or .def_1161 .def_1165))
(define-fun .def_1160 () Bool (= call_moesi.ite2.next call_moesi.ite7.next))
(define-fun .def_1162 () Bool (or .def_1160 .def_1161))
(define-fun .def_1157 () Bool (= call_moesi.ite7.next call_moesi.ite6.next))
(define-fun .def_1159 () Bool (or .def_1157 param_etat_mo2.next))
(define-fun .def_1163 () Bool (and .def_1159 .def_1162))
(define-fun .def_1167 () Bool (and .def_1163 .def_1166))
(define-fun .def_1171 () Bool (and .def_1167 .def_1170))
(define-fun .def_1206 () Bool (and .def_1171 .def_1205))
(define-fun .def_1238 () Bool (and .def_1206 .def_1237))
(define-fun .def_1246 () Bool (and .def_1238 .def_1245))
(define-fun .def_1250 () Bool (and .def_1246 .def_1249))
(define-fun .def_1253 () Bool (and .def_1250 .def_1252))
(define-fun .def_1257 () Bool (and .def_1253 .def_1256))
(define-fun .def_1261 () Bool (and .def_1257 .def_1260))
(define-fun .def_1265 () Bool (and .def_1261 .def_1264))
(define-fun .def_1268 () Bool (and .def_1265 .def_1267))
(define-fun .def_1270 () Bool (and .def_1268 .def_1269))
(define-fun .def_1272 () Bool (and .def_1270 .def_1271))
(define-fun .def_1274 () Bool (and .def_1272 .def_1273))
(define-fun .def_1276 () Bool (and .def_1274 .def_1275))
(define-fun .def_1278 () Bool (and .def_1276 .def_1277))
(define-fun .def_1280 () Bool (and .def_1278 .def_1279))
(define-fun .def_1294 () Bool (and .def_1280 .def_1293))
(define-fun .def_1296 () Bool (and .def_1294 .def_1295))
(define-fun .def_902 () Bool (= call_Sofar.flby call_Sofar.Sofar))
(define-fun .def_897 () Bool (and param_etat_mo4 param_etat_mo3))
(define-fun .def_895 () Bool (and param_etat_mo4 param_etat_mo2))
(define-fun .def_893 () Bool (and param_etat_mo2 param_etat_mo3))
(define-fun .def_891 () Bool (and param_etat_mo4 param_etat_mo1))
(define-fun .def_889 () Bool (and param_etat_mo1 param_etat_mo3))
(define-fun .def_888 () Bool (and param_etat_mo2 param_etat_mo1))
(define-fun .def_890 () Bool (or .def_888 .def_889))
(define-fun .def_892 () Bool (or .def_890 .def_891))
(define-fun .def_894 () Bool (or .def_892 .def_893))
(define-fun .def_896 () Bool (or .def_894 .def_895))
(define-fun .def_898 () Bool (or .def_896 .def_897))
(define-fun .def_899 () Bool (not .def_898))
(define-fun .def_900 () Bool (= call_excludes4.excludes .def_899))
(define-fun .def_886 () Bool (= call_moesi.flby call_moesi.erreur_mo))
(define-fun .def_884 () Bool (= call_moesi.flby6 call_moesi.owned_mo))
(define-fun .def_882 () Bool (= call_moesi.flby5 call_moesi.invalid_mo))
(define-fun .def_880 () Bool (= call_moesi.flby4 call_moesi.shared_mo))
(define-fun .def_878 () Bool (= call_moesi.flby3 call_moesi.exclusive_mo))
(define-fun .def_876 () Bool (= call_moesi.flby2 call_moesi.modified_mo))
(define-fun .def_874 () Bool (= erreur_mo call_moesi.erreur_mo))
(define-fun .def_871 () Bool (= owned_mo call_moesi.owned_mo))
(define-fun .def_867 () Bool (= invalid_mo call_moesi.invalid_mo))
(define-fun .def_863 () Bool (= shared_mo call_moesi.shared_mo))
(define-fun .def_859 () Bool (= exclusive_mo call_moesi.exclusive_mo))
(define-fun .def_855 () Bool (= modified_mo call_moesi.modified_mo))
(define-fun .def_849 () Bool (not erreur_mo))
(define-fun .def_847 () Bool (not call_Sofar.Sofar))
(define-fun .def_850 () Bool (or .def_847 .def_849))
(define-fun .def_851 () Bool (= _OK_ .def_850))
(define-fun .def_841 () Bool (= call_moesi.ite32 call_moesi.ite33))
(define-fun .def_842 () Bool (or param_etat_mo3 .def_841))
(define-fun .def_838 () Bool (= call_moesi.ite30 call_moesi.ite33))
(define-fun .def_816 () Bool (not param_etat_mo3))
(define-fun .def_839 () Bool (or .def_816 .def_838))
(define-fun .def_835 () Bool (= call_moesi.ite26 call_moesi.ite27))
(define-fun .def_836 () Bool (or param_etat_mo3 .def_835))
(define-fun .def_832 () Bool (= call_moesi.ite27 call_moesi.ite24))
(define-fun .def_833 () Bool (or .def_816 .def_832))
(define-fun .def_828 () Bool (= call_moesi.ite20 call_moesi.ite21))
(define-fun .def_829 () Bool (or param_etat_mo3 .def_828))
(define-fun .def_825 () Bool (= call_moesi.ite18 call_moesi.ite21))
(define-fun .def_826 () Bool (or .def_816 .def_825))
(define-fun .def_822 () Bool (= call_moesi.ite13 call_moesi.ite14))
(define-fun .def_823 () Bool (or param_etat_mo3 .def_822))
(define-fun .def_819 () Bool (= call_moesi.ite11 call_moesi.ite14))
(define-fun .def_820 () Bool (or .def_816 .def_819))
(define-fun .def_815 () Bool (= call_moesi.ite3 call_moesi.ite6))
(define-fun .def_817 () Bool (or .def_815 .def_816))
(define-fun .def_812 () Bool (= call_moesi.ite5 call_moesi.ite6))
(define-fun .def_814 () Bool (or .def_812 param_etat_mo3))
(define-fun .def_818 () Bool (and .def_814 .def_817))
(define-fun .def_821 () Bool (and .def_818 .def_820))
(define-fun .def_824 () Bool (and .def_821 .def_823))
(define-fun .def_827 () Bool (and .def_824 .def_826))
(define-fun .def_830 () Bool (and .def_827 .def_829))
(define-fun .def_834 () Bool (and .def_830 .def_833))
(define-fun .def_837 () Bool (and .def_834 .def_836))
(define-fun .def_840 () Bool (and .def_837 .def_839))
(define-fun .def_843 () Bool (and .def_840 .def_842))
(define-fun .def_808 () Bool (= call_moesi.ite34 call_moesi.ite33))
(define-fun .def_809 () Bool (or param_etat_mo1 .def_808))
(define-fun .def_804 () Bool (= call_moesi.ite29 call_moesi.ite34))
(define-fun .def_774 () Bool (not param_etat_mo1))
(define-fun .def_805 () Bool (or .def_774 .def_804))
(define-fun .def_799 () Bool (= call_moesi.ite28 call_moesi.ite27))
(define-fun .def_800 () Bool (or param_etat_mo1 .def_799))
(define-fun .def_795 () Bool (= call_moesi.ite23 call_moesi.ite28))
(define-fun .def_796 () Bool (or .def_774 .def_795))
(define-fun .def_790 () Bool (= call_moesi.ite22 call_moesi.ite21))
(define-fun .def_791 () Bool (or param_etat_mo1 .def_790))
(define-fun .def_786 () Bool (= call_moesi.ite17 call_moesi.ite22))
(define-fun .def_787 () Bool (or .def_774 .def_786))
(define-fun .def_781 () Bool (= call_moesi.ite15 call_moesi.ite16))
(define-fun .def_782 () Bool (or param_etat_mo1 .def_781))
(define-fun .def_778 () Bool (= call_moesi.ite9 call_moesi.ite16))
(define-fun .def_779 () Bool (or .def_774 .def_778))
(define-fun .def_773 () Bool (= call_moesi.ite call_moesi.ite8))
(define-fun .def_775 () Bool (or .def_773 .def_774))
(define-fun .def_770 () Bool (= call_moesi.ite7 call_moesi.ite8))
(define-fun .def_772 () Bool (or .def_770 param_etat_mo1))
(define-fun .def_776 () Bool (and .def_772 .def_775))
(define-fun .def_780 () Bool (and .def_776 .def_779))
(define-fun .def_783 () Bool (and .def_780 .def_782))
(define-fun .def_788 () Bool (and .def_783 .def_787))
(define-fun .def_792 () Bool (and .def_788 .def_791))
(define-fun .def_797 () Bool (and .def_792 .def_796))
(define-fun .def_801 () Bool (and .def_797 .def_800))
(define-fun .def_806 () Bool (and .def_801 .def_805))
(define-fun .def_810 () Bool (and .def_806 .def_809))
(define-fun .def_766 () Bool (= call_moesi.ite15 call_moesi.ite14))
(define-fun .def_767 () Bool (or param_etat_mo2 .def_766))
(define-fun .def_762 () Bool (= call_moesi.ite10 call_moesi.ite15))
(define-fun .def_757 () Bool (not param_etat_mo2))
(define-fun .def_763 () Bool (or .def_757 .def_762))
(define-fun .def_756 () Bool (= call_moesi.ite7 call_moesi.ite2))
(define-fun .def_758 () Bool (or .def_756 .def_757))
(define-fun .def_752 () Bool (= call_moesi.ite7 call_moesi.ite6))
(define-fun .def_754 () Bool (or .def_752 param_etat_mo2))
(define-fun .def_759 () Bool (and .def_754 .def_758))
(define-fun .def_764 () Bool (and .def_759 .def_763))
(define-fun .def_768 () Bool (and .def_764 .def_767))
(define-fun .def_811 () Bool (and .def_768 .def_810))
(define-fun .def_844 () Bool (and .def_811 .def_843))
(define-fun .def_852 () Bool (and .def_844 .def_851))
(define-fun .def_856 () Bool (and .def_852 .def_855))
(define-fun .def_860 () Bool (and .def_856 .def_859))
(define-fun .def_864 () Bool (and .def_860 .def_863))
(define-fun .def_868 () Bool (and .def_864 .def_867))
(define-fun .def_872 () Bool (and .def_868 .def_871))
(define-fun .def_875 () Bool (and .def_872 .def_874))
(define-fun .def_877 () Bool (and .def_875 .def_876))
(define-fun .def_879 () Bool (and .def_877 .def_878))
(define-fun .def_881 () Bool (and .def_879 .def_880))
(define-fun .def_883 () Bool (and .def_881 .def_882))
(define-fun .def_885 () Bool (and .def_883 .def_884))
(define-fun .def_887 () Bool (and .def_885 .def_886))
(define-fun .def_901 () Bool (and .def_887 .def_900))
(define-fun .def_903 () Bool (and .def_901 .def_902))
(define-fun .def_1297 () Bool (and .def_903 .def_1296))
(define-fun .def_1147 () Bool (<= param_init_invalid_mo.next 0))
(define-fun .def_1148 () Bool (not .def_1147))
(define-fun .def_1150 () Bool (and .def_1148 call_excludes4.excludes.next))
(define-fun .def_1151 () Bool (or call_Sofar.Sofar .def_1150))
(define-fun .def_1153 () Bool (= .def_1151 call_Sofar.flby.next))
(define-fun .def_1144 () Bool (= call_moesi.ite34.next call_moesi.flby6.next))
(define-fun .def_1140 () Bool (= call_moesi.ite28.next call_moesi.flby5.next))
(define-fun .def_1136 () Bool (= call_moesi.ite22.next call_moesi.flby4.next))
(define-fun .def_1132 () Bool (= call_moesi.ite16.next call_moesi.flby3.next))
(define-fun .def_1128 () Bool (= call_moesi.ite8.next call_moesi.flby2.next))
(define-fun .def_1122 () Bool (<= 2 call_moesi.exclusive_mo.next))
(define-fun .def_1124 () Bool (= .def_1122 call_moesi.flby.next))
(define-fun .def_1081 () Bool (<= 1 call_moesi.invalid_mo))
(define-fun .def_1118 () Bool (= call_moesi.garde_mo4.next .def_1081))
(define-fun .def_1115 () Bool (= call_moesi.ite31.next 0))
(define-fun .def_959 () Bool (not call_moesi.garde_mo4.next))
(define-fun .def_1116 () Bool (or .def_959 .def_1115))
(define-fun .def_1112 () Bool (= call_moesi.ite19.next 0))
(define-fun .def_1113 () Bool (or .def_959 .def_1112))
(define-fun .def_1109 () Bool (= call_moesi.ite4.next 0))
(define-fun .def_1110 () Bool (or .def_959 .def_1109))
(define-fun .def_1107 () Bool (= call_moesi.ite12.next 1))
(define-fun .def_1108 () Bool (or .def_959 .def_1107))
(define-fun .def_1111 () Bool (and .def_1108 .def_1110))
(define-fun .def_1114 () Bool (and .def_1111 .def_1113))
(define-fun .def_1117 () Bool (and .def_1114 .def_1116))
(define-fun .def_1119 () Bool (and .def_1117 .def_1118))
(define-fun .def_1101 () Int (* (- 1) call_moesi.owned_mo))
(define-fun .def_1102 () Int (+ call_moesi.shared_mo .def_1101))
(define-fun .def_1103 () Bool (<= 1 .def_1102))
(define-fun .def_1104 () Bool (= call_moesi.garde_mo3.next .def_1103))
(define-fun .def_1096 () Bool (= call_moesi.ite30.next 0))
(define-fun .def_943 () Bool (not call_moesi.garde_mo3.next))
(define-fun .def_1097 () Bool (or .def_943 .def_1096))
(define-fun .def_1093 () Bool (= call_moesi.ite18.next 0))
(define-fun .def_1094 () Bool (or .def_943 .def_1093))
(define-fun .def_1090 () Bool (= call_moesi.ite3.next 0))
(define-fun .def_1091 () Bool (or .def_943 .def_1090))
(define-fun .def_1088 () Bool (= call_moesi.ite11.next 1))
(define-fun .def_1089 () Bool (or .def_943 .def_1088))
(define-fun .def_1092 () Bool (and .def_1089 .def_1091))
(define-fun .def_1095 () Bool (and .def_1092 .def_1094))
(define-fun .def_1098 () Bool (and .def_1095 .def_1097))
(define-fun .def_1105 () Bool (and .def_1098 .def_1104))
(define-fun .def_1085 () Bool (<= 1 call_moesi.exclusive_mo))
(define-fun .def_1086 () Bool (= call_moesi.garde_mo2.next .def_1085))
(define-fun .def_1082 () Bool (= call_moesi.garde_mo1.next .def_1081))
(define-fun .def_1078 () Bool (= call_moesi.ite.next 0))
(define-fun .def_969 () Bool (not call_moesi.garde_mo1.next))
(define-fun .def_1079 () Bool (or .def_969 .def_1078))
(define-fun .def_1076 () Bool (= call_moesi.ite9.next 0))
(define-fun .def_1077 () Bool (or .def_969 .def_1076))
(define-fun .def_1080 () Bool (and .def_1077 .def_1079))
(define-fun .def_1083 () Bool (and .def_1080 .def_1082))
(define-fun .def_1072 () Bool (= call_moesi.owned_mo call_moesi.ite31.next))
(define-fun .def_1073 () Bool (or call_moesi.garde_mo4.next .def_1072))
(define-fun .def_1069 () Bool (= call_moesi.owned_mo call_moesi.ite29.next))
(define-fun .def_1070 () Bool (or call_moesi.garde_mo1.next .def_1069))
(define-fun .def_1067 () Bool (= call_moesi.owned_mo call_moesi.ite30.next))
(define-fun .def_1068 () Bool (or call_moesi.garde_mo3.next .def_1067))
(define-fun .def_1071 () Bool (and .def_1068 .def_1070))
(define-fun .def_1074 () Bool (and .def_1071 .def_1073))
(define-fun .def_1062 () Bool (= call_moesi.invalid_mo call_moesi.ite25.next))
(define-fun .def_1063 () Bool (or call_moesi.garde_mo4.next .def_1062))
(define-fun .def_1059 () Bool (= call_moesi.invalid_mo call_moesi.ite24.next))
(define-fun .def_1060 () Bool (or call_moesi.garde_mo3.next .def_1059))
(define-fun .def_1054 () Int (* (- 1) call_moesi.ite23.next))
(define-fun .def_1055 () Int (+ call_moesi.invalid_mo .def_1054))
(define-fun .def_1056 () Bool (= .def_1055 1))
(define-fun .def_1057 () Bool (or .def_969 .def_1056))
(define-fun .def_1052 () Bool (= call_moesi.invalid_mo call_moesi.ite23.next))
(define-fun .def_1053 () Bool (or call_moesi.garde_mo1.next .def_1052))
(define-fun .def_1058 () Bool (and .def_1053 .def_1057))
(define-fun .def_1061 () Bool (and .def_1058 .def_1060))
(define-fun .def_1064 () Bool (and .def_1061 .def_1063))
(define-fun .def_1047 () Bool (= call_moesi.shared_mo call_moesi.ite19.next))
(define-fun .def_1048 () Bool (or call_moesi.garde_mo4.next .def_1047))
(define-fun .def_1044 () Bool (= call_moesi.shared_mo call_moesi.ite17.next))
(define-fun .def_1045 () Bool (or call_moesi.garde_mo1.next .def_1044))
(define-fun .def_1042 () Bool (= call_moesi.shared_mo call_moesi.ite18.next))
(define-fun .def_1043 () Bool (or call_moesi.garde_mo3.next .def_1042))
(define-fun .def_1046 () Bool (and .def_1043 .def_1045))
(define-fun .def_1049 () Bool (and .def_1046 .def_1048))
(define-fun .def_1032 () Int (* (- 1) call_moesi.ite17.next))
(define-fun .def_1035 () Int (+ call_moesi.shared_mo .def_1032))
(define-fun .def_1036 () Int (+ call_moesi.exclusive_mo .def_1035))
(define-fun .def_1037 () Bool (= .def_1036 (- 1)))
(define-fun .def_1038 () Bool (or .def_969 .def_1037))
(define-fun .def_1028 () Bool (= call_moesi.exclusive_mo call_moesi.ite12.next))
(define-fun .def_1029 () Bool (or call_moesi.garde_mo4.next .def_1028))
(define-fun .def_1025 () Bool (= call_moesi.exclusive_mo call_moesi.ite11.next))
(define-fun .def_1026 () Bool (or call_moesi.garde_mo3.next .def_1025))
(define-fun .def_1021 () Bool (= call_moesi.exclusive_mo call_moesi.ite10.next))
(define-fun .def_1022 () Bool (or call_moesi.garde_mo2.next .def_1021))
(define-fun .def_1018 () Bool (= call_moesi.exclusive_mo call_moesi.ite9.next))
(define-fun .def_1019 () Bool (or call_moesi.garde_mo1.next .def_1018))
(define-fun .def_1013 () Int (* (- 1) call_moesi.ite10.next))
(define-fun .def_1014 () Int (+ call_moesi.exclusive_mo .def_1013))
(define-fun .def_1015 () Bool (= .def_1014 1))
(define-fun .def_910 () Bool (not call_moesi.garde_mo2.next))
(define-fun .def_1016 () Bool (or .def_910 .def_1015))
(define-fun .def_1020 () Bool (and .def_1016 .def_1019))
(define-fun .def_1023 () Bool (and .def_1020 .def_1022))
(define-fun .def_1027 () Bool (and .def_1023 .def_1026))
(define-fun .def_1030 () Bool (and .def_1027 .def_1029))
(define-fun .def_1039 () Bool (and .def_1030 .def_1038))
(define-fun .def_1008 () Bool (= call_moesi.owned_mo call_moesi.ite32.next))
(define-fun .def_1009 () Bool (or param_etat_mo4.next .def_1008))
(define-fun .def_1005 () Bool (= call_moesi.ite31.next call_moesi.ite32.next))
(define-fun .def_977 () Bool (not param_etat_mo4.next))
(define-fun .def_1006 () Bool (or .def_977 .def_1005))
(define-fun .def_1000 () Bool (= call_moesi.invalid_mo call_moesi.ite26.next))
(define-fun .def_1001 () Bool (or param_etat_mo4.next .def_1000))
(define-fun .def_997 () Bool (= call_moesi.ite25.next call_moesi.ite26.next))
(define-fun .def_998 () Bool (or .def_977 .def_997))
(define-fun .def_993 () Bool (= call_moesi.shared_mo call_moesi.ite20.next))
(define-fun .def_994 () Bool (or param_etat_mo4.next .def_993))
(define-fun .def_990 () Bool (= call_moesi.ite19.next call_moesi.ite20.next))
(define-fun .def_991 () Bool (or .def_977 .def_990))
(define-fun .def_985 () Bool (= call_moesi.exclusive_mo call_moesi.ite13.next))
(define-fun .def_986 () Bool (or param_etat_mo4.next .def_985))
(define-fun .def_982 () Bool (= call_moesi.ite12.next call_moesi.ite13.next))
(define-fun .def_983 () Bool (or .def_977 .def_982))
(define-fun .def_976 () Bool (= call_moesi.ite4.next call_moesi.ite5.next))
(define-fun .def_978 () Bool (or .def_976 .def_977))
(define-fun .def_973 () Bool (= call_moesi.modified_mo call_moesi.ite5.next))
(define-fun .def_975 () Bool (or .def_973 param_etat_mo4.next))
(define-fun .def_979 () Bool (and .def_975 .def_978))
(define-fun .def_984 () Bool (and .def_979 .def_983))
(define-fun .def_987 () Bool (and .def_984 .def_986))
(define-fun .def_992 () Bool (and .def_987 .def_991))
(define-fun .def_995 () Bool (and .def_992 .def_994))
(define-fun .def_999 () Bool (and .def_995 .def_998))
(define-fun .def_1002 () Bool (and .def_999 .def_1001))
(define-fun .def_1007 () Bool (and .def_1002 .def_1006))
(define-fun .def_1010 () Bool (and .def_1007 .def_1009))
(define-fun .def_963 () Int (* (- 1) call_moesi.ite29.next))
(define-fun .def_966 () Int (+ call_moesi.owned_mo .def_963))
(define-fun .def_967 () Int (+ call_moesi.modified_mo .def_966))
(define-fun .def_968 () Bool (= .def_967 0))
(define-fun .def_970 () Bool (or .def_968 .def_969))
(define-fun .def_947 () Int (* (- 1) call_moesi.ite25.next))
(define-fun .def_953 () Int (+ call_moesi.owned_mo .def_947))
(define-fun .def_954 () Int (+ call_moesi.invalid_mo .def_953))
(define-fun .def_955 () Int (+ call_moesi.shared_mo .def_954))
(define-fun .def_956 () Int (+ call_moesi.exclusive_mo .def_955))
(define-fun .def_957 () Int (+ call_moesi.modified_mo .def_956))
(define-fun .def_958 () Bool (= .def_957 1))
(define-fun .def_960 () Bool (or .def_958 .def_959))
(define-fun .def_931 () Int (* (- 1) call_moesi.ite24.next))
(define-fun .def_937 () Int (+ call_moesi.owned_mo .def_931))
(define-fun .def_938 () Int (+ call_moesi.invalid_mo .def_937))
(define-fun .def_939 () Int (+ call_moesi.shared_mo .def_938))
(define-fun .def_940 () Int (+ call_moesi.exclusive_mo .def_939))
(define-fun .def_941 () Int (+ call_moesi.modified_mo .def_940))
(define-fun .def_942 () Bool (= .def_941 1))
(define-fun .def_944 () Bool (or .def_942 .def_943))
(define-fun .def_926 () Bool (= call_moesi.modified_mo call_moesi.ite4.next))
(define-fun .def_928 () Bool (or .def_926 call_moesi.garde_mo4.next))
(define-fun .def_921 () Bool (= call_moesi.modified_mo call_moesi.ite3.next))
(define-fun .def_923 () Bool (or .def_921 call_moesi.garde_mo3.next))
(define-fun .def_917 () Bool (= call_moesi.modified_mo call_moesi.ite2.next))
(define-fun .def_918 () Bool (or call_moesi.garde_mo2.next .def_917))
(define-fun .def_913 () Bool (= call_moesi.modified_mo call_moesi.ite.next))
(define-fun .def_915 () Bool (or .def_913 call_moesi.garde_mo1.next))
(define-fun .def_906 () Int (* (- 1) call_moesi.ite2.next))
(define-fun .def_907 () Int (+ call_moesi.modified_mo .def_906))
(define-fun .def_908 () Bool (= .def_907 (- 1)))
(define-fun .def_911 () Bool (or .def_908 .def_910))
(define-fun .def_916 () Bool (and .def_911 .def_915))
(define-fun .def_919 () Bool (and .def_916 .def_918))
(define-fun .def_924 () Bool (and .def_919 .def_923))
(define-fun .def_929 () Bool (and .def_924 .def_928))
(define-fun .def_945 () Bool (and .def_929 .def_944))
(define-fun .def_961 () Bool (and .def_945 .def_960))
(define-fun .def_971 () Bool (and .def_961 .def_970))
(define-fun .def_1011 () Bool (and .def_971 .def_1010))
(define-fun .def_1040 () Bool (and .def_1011 .def_1039))
(define-fun .def_1050 () Bool (and .def_1040 .def_1049))
(define-fun .def_1065 () Bool (and .def_1050 .def_1064))
(define-fun .def_1075 () Bool (and .def_1065 .def_1074))
(define-fun .def_1084 () Bool (and .def_1075 .def_1083))
(define-fun .def_1087 () Bool (and .def_1084 .def_1086))
(define-fun .def_1106 () Bool (and .def_1087 .def_1105))
(define-fun .def_1120 () Bool (and .def_1106 .def_1119))
(define-fun .def_1125 () Bool (and .def_1120 .def_1124))
(define-fun .def_1129 () Bool (and .def_1125 .def_1128))
(define-fun .def_1133 () Bool (and .def_1129 .def_1132))
(define-fun .def_1137 () Bool (and .def_1133 .def_1136))
(define-fun .def_1141 () Bool (and .def_1137 .def_1140))
(define-fun .def_1145 () Bool (and .def_1141 .def_1144))
(define-fun .def_1154 () Bool (and .def_1145 .def_1153))
(define-fun .def_1298 () Bool (and .def_1154 .def_1297))
(assert .def_1298)
